min:  + 1 x0_1 + 2 x0_2 + 1 x1_2 + 1 x2_1 + 3 x1_3 + 1 x2_3;
KN0s:  +  x0_1 +  x0_2 >= 1;
KN1:  +  x0_1 -  x1_2 +  x2_1 -  x1_3 >= 0;
KN2:  +  x0_2 +  x1_2 -  x2_1 -  x2_3 >= 0;
KN3z:  +  x1_3 +  x2_3 >= 1;
